16 79 24 44 19 26 64 53 42 85 1 96 99 32 84 17 90 71 76 30 0 36 94 89 14 68 82 49 10 81 50 54 72 38 9 66 2 86 80 59 91 55 61 51 87 40 47 22 97 98 41 93 23 78 95 52 60 12 73 58 45 27 75 56 48 31 62 35 70 25 43 69 13 4 8 11 57 18 46 15 63 83 20 5 77 88 34 92 21 37 6 67 65 33 3 7 39 74 29 28